p cnf 23 7
a 1 0
e 2 3 0
a 4 0
e 5 0
a 6 0
e 7 0
a 8 9 10 0
e 11 0
a 12 13 0
e 14 0
a 15 0
e 16 0
a 17 0
e 18 19 20 0
a 21 0
e 22 23 0
-15 21 0
-16 -11 -9 22 12 0
-3 -18 9 0
-17 18 20 22 -12 0
-17 -6 -14 8 0
11 -3 -21 14 6 0
-1 8 7 -12 13 0
